(set-logic QF_S)
(declare-fun var0 () String)
(declare-fun var1 () Int)
(declare-fun var2 () Bool)
(declare-fun var3 () String)
(declare-fun var4 () Int)
(declare-fun var5 () Bool)
(declare-fun var6 () String)
(declare-fun var7 () Int)
(declare-fun var8 () Bool)
(assert (str.in.re (str.replace var6 var0 var3) (re.inter re.allchar re.allchar)))
(assert (> (str.len var3) (str.len var0)))
(assert (str.contains (str.substr var0 var7 var4) (str.replace var6 var0 var6)))
(assert (< (str.indexof (str.at var6 10) (str.substr "Oxok,=:-""1" 1 var4) (str.indexof var0 "{z>2ioTVpv" 4)) (str.indexof (str.replace var3 var6 var0) (str.replace var0 var0 var6) (str.len "JlO$I<u#oN"))))
(check-sat)